db/data/13052269581455881271858718208120681827.z3.out
sat
-------------------
4.192309026
